
x = 200;
y = 400;
c = 80000;
n = 459;
w = [121 121 121 121 121 121 121 121 121 121 121 121 4 4 4 4 4 1 1 121 121 121 81 4 4 4 4 1 1 361 81 81 1 1 1 1 1 1 1 1 1 9216 1936 1936 64 64 64 64 64 16 16 8281 169 169 169 169 169 169 169 441 441 441 441 144 81 9 9 9 784 784 784 784 9 9 9 9 9 9 9 9 9 1 1 1 400 100 100 169 49 36 1 1 1 1 1 1 100 25 25 121 16 16 9 1 1 1 16 16 9 1 1 1 81 4 4 4 4 1 1 169 36 36 1 1 1 1 1 1 841 841 841 784 1 1 1 1 1 1 1 1 1 1 1 1 1 1 1 1 1 1 1 1 1 1 1 1 1 1 1 1 13225 196 196 196 196 196 196 196 196 9 9 9 9 4 1 1 196 196 196 196 169 1 1 1 1 1 1 1 1 1 1 1 1 1 961 289 196 9 9 9 9 4 1 1 1089 100 100 100 9 9 9 1 1 1 81 4 4 4 4 1 1 4 4 4 4 1 1 1521 1521 81 81 81 81 9 9 9 81 81 81 81 9 9 9 9 9 9 9 4 1 1 1 1 1 1 1 1 1 49 1 1 1 1 1 1 1 1 1 1 1 121 1 1 1 1 1 1 1 1 1 1 1 196 196 100 16 16 4 4 25 25 16 1 1 1 1 1089 100 100 100 9 9 9 1 1 1 729 256 121 25 25 1 1 1 1 1 9 9 9 4 1 1 4 4 4 4 4 4 4 4 4 4 4 4 4 4 4 1 1 961 100 100 100 1 1 1 1 1 1 1 1 1 1 4 1 1 9 4 1 1 36 25 1 1 1 1 1 1089 144 144 81 9 9 9 1089 961 4 4 4 4 4 4 4 4 4 4 4 4 4 4 4 1 1 25 25 1 1 1 1 1 121 121 100 1 1 1 1 1 1 1 1 1 1 9 1 1 1 9 9 1 1 1 81 81 81 81 49 4 4 4 1 1 1225 64 64 64 64 9 9 4 1 1 2116 2116 100 100 100 100 36 16 4 4 3969 1521 576 225 81 36 9 9];
p = [121 121 121 121 121 121 121 121 121 121 121 121 4 4 4 4 4 1 1 121 121 121 81 4 4 4 4 1 1 361 81 81 1 1 1 1 1 1 1 1 1 9216 1936 1936 64 64 64 64 64 16 16 8281 169 169 169 169 169 169 169 441 441 441 441 144 81 9 9 9 784 784 784 784 9 9 9 9 9 9 9 9 9 1 1 1 400 100 100 169 49 36 1 1 1 1 1 1 100 25 25 121 16 16 9 1 1 1 16 16 9 1 1 1 81 4 4 4 4 1 1 169 36 36 1 1 1 1 1 1 841 841 841 784 1 1 1 1 1 1 1 1 1 1 1 1 1 1 1 1 1 1 1 1 1 1 1 1 1 1 1 1 13225 196 196 196 196 196 196 196 196 9 9 9 9 4 1 1 196 196 196 196 169 1 1 1 1 1 1 1 1 1 1 1 1 1 961 289 196 9 9 9 9 4 1 1 1089 100 100 100 9 9 9 1 1 1 81 4 4 4 4 1 1 4 4 4 4 1 1 1521 1521 81 81 81 81 9 9 9 81 81 81 81 9 9 9 9 9 9 9 4 1 1 1 1 1 1 1 1 1 49 1 1 1 1 1 1 1 1 1 1 1 121 1 1 1 1 1 1 1 1 1 1 1 196 196 100 16 16 4 4 25 25 16 1 1 1 1 1089 100 100 100 9 9 9 1 1 1 729 256 121 25 25 1 1 1 1 1 9 9 9 4 1 1 4 4 4 4 4 4 4 4 4 4 4 4 4 4 4 1 1 961 100 100 100 1 1 1 1 1 1 1 1 1 1 4 1 1 9 4 1 1 36 25 1 1 1 1 1 1089 144 144 81 9 9 9 1089 961 4 4 4 4 4 4 4 4 4 4 4 4 4 4 4 1 1 25 25 1 1 1 1 1 121 121 100 1 1 1 1 1 1 1 1 1 1 9 1 1 1 9 9 1 1 1 81 81 81 81 49 4 4 4 1 1 1225 64 64 64 64 9 9 4 1 1 2116 2116 100 100 100 100 36 16 4 4 3969 1521 576 225 81 36 9 9];
s = [11 11 11 11 11 11 11 11 11 11 11 11 2 2 2 2 2 1 1 11 11 11 9 2 2 2 2 1 1 19 9 9 1 1 1 1 1 1 1 1 1 96 44 44 8 8 8 8 8 4 4 91 13 13 13 13 13 13 13 21 21 21 21 12 9 3 3 3 28 28 28 28 3 3 3 3 3 3 3 3 3 1 1 1 20 10 10 13 7 6 1 1 1 1 1 1 10 5 5 11 4 4 3 1 1 1 4 4 3 1 1 1 9 2 2 2 2 1 1 13 6 6 1 1 1 1 1 1 29 29 29 28 1 1 1 1 1 1 1 1 1 1 1 1 1 1 1 1 1 1 1 1 1 1 1 1 1 1 1 1 115 14 14 14 14 14 14 14 14 3 3 3 3 2 1 1 14 14 14 14 13 1 1 1 1 1 1 1 1 1 1 1 1 1 31 17 14 3 3 3 3 2 1 1 33 10 10 10 3 3 3 1 1 1 9 2 2 2 2 1 1 2 2 2 2 1 1 39 39 9 9 9 9 3 3 3 9 9 9 9 3 3 3 3 3 3 3 2 1 1 1 1 1 1 1 1 1 7 1 1 1 1 1 1 1 1 1 1 1 11 1 1 1 1 1 1 1 1 1 1 1 14 14 10 4 4 2 2 5 5 4 1 1 1 1 33 10 10 10 3 3 3 1 1 1 27 16 11 5 5 1 1 1 1 1 3 3 3 2 1 1 2 2 2 2 2 2 2 2 2 2 2 2 2 2 2 1 1 31 10 10 10 1 1 1 1 1 1 1 1 1 1 2 1 1 3 2 1 1 6 5 1 1 1 1 1 33 12 12 9 3 3 3 33 31 2 2 2 2 2 2 2 2 2 2 2 2 2 2 2 1 1 5 5 1 1 1 1 1 11 11 10 1 1 1 1 1 1 1 1 1 1 3 1 1 1 3 3 1 1 1 9 9 9 9 7 2 2 2 1 1 35 8 8 8 8 3 3 2 1 1 46 46 10 10 10 10 6 4 2 2 63 39 24 15 9 6 3 3];

